; benchmark generated from python API
(set-info :status unknown)
(declare-datatypes ((RealState 0)) (((RMk1 (rval1 Real)) (RMk2 (rval2 Real)))))
 (declare-fun xuscore2dollarskuscore65 () Real)
(declare-fun t35uscore0dollarskuscore2 () Real)
(declare-fun yuscore2dollarskuscore75 () Real)
(declare-fun stuscore2dollarskuscore75 () Real)
(assert
 (let (($x161 (exists ((ts35uscore2_st RealState) (val!92 Real) )(let ((?x98 (* 2.0 xuscore2dollarskuscore65)))
 (let (($x104 (>= (+ t35uscore0dollarskuscore2 yuscore2dollarskuscore75) (- 5.0 (+ (* 2.0 t35uscore0dollarskuscore2) ?x98)))))
 (let (($x127 (<= yuscore2dollarskuscore75 (+ 10.0 xuscore2dollarskuscore65))))
 (let (($x205 (>= yuscore2dollarskuscore75 (- 5.0 ?x98))))
 (let (($x169 (<= yuscore2dollarskuscore75 12.0)))
 (let (($x143 (>= yuscore2dollarskuscore75 1.0)))
 (let (($x178 (= stuscore2dollarskuscore75 1.0)))
 (let (($x120 (< xuscore2dollarskuscore65 2.0)))
 (let (($x224 (>= t35uscore0dollarskuscore2 0.0)))
 (let (($x180 (and (<= 0.0 (rval2 ts35uscore2_st)) (<= (rval2 ts35uscore2_st) t35uscore0dollarskuscore2))))
 (let (($x112 (= stuscore2dollarskuscore75 3.0)))
 (let (($x113 (and $x112 (=> $x180 (<= (+ (rval2 ts35uscore2_st) xuscore2dollarskuscore65) 2.0)))))
 (let (($x146 (and (and (and (and (and (and $x113 $x224) $x120) $x178) $x143) $x169) $x205)))
 (let (($x94 (not (= ts35uscore2_st (RMk1 val!92)))))
 (and $x94 (=> (and $x146 $x127) $x104)))))))))))))))))
 ))
 (not $x161)))
(check-sat)
